************************************************************************
file with basedata            : md110_.bas
initial value random generator: 243030225
************************************************************************
projects                      :  1
jobs (incl. supersource/sink ):  14
horizon                       :  98
RESOURCES
  - renewable                 :  2   R
  - nonrenewable              :  2   N
  - doubly constrained        :  0   D
************************************************************************
PROJECT INFORMATION:
pronr.  #jobs rel.date duedate tardcost  MPM-Time
    1     12      0       12        5       12
************************************************************************
PRECEDENCE RELATIONS:
jobnr.    #modes  #successors   successors
   1        1          3           2   3   4
   2        3          3           5   8  11
   3        3          3           5   6   8
   4        3          3           6   7   8
   5        3          2          12  13
   6        3          3           9  12  13
   7        3          2           9  10
   8        3          1          10
   9        3          1          11
  10        3          2          12  13
  11        3          1          14
  12        3          1          14
  13        3          1          14
  14        1          0        
************************************************************************
REQUESTS/DURATIONS:
jobnr. mode duration  R 1  R 2  N 1  N 2
------------------------------------------------------------------------
  1      1     0       0    0    0    0
  2      1     4       6   10    9    7
         2     9       5    5    6    6
         3     9       4    5    7    5
  3      1     1       7    5    9   10
         2     8       6    5    8    8
         3     9       5    4    7    4
  4      1     2      10    8    5    8
         2     9       6    6    5    8
         3    10       4    6    2    6
  5      1     1       8    6    8    9
         2     4       7    5    7    6
         3     9       7    3    7    4
  6      1     4       2    9    4    9
         2     7       1    9    4    6
         3     8       1    9    3    5
  7      1     3       9    7    7    6
         2     6       9    5    7    6
         3    10       8    5    4    4
  8      1     1       8    4    8    6
         2     2       7    2    8    5
         3     5       6    1    6    3
  9      1     5       7    6    4   10
         2     6       3    6    4    8
         3     9       3    6    3    7
 10      1     2       5    9    7    1
         2     4       4    8    4    1
         3    10       2    5    3    1
 11      1     1       6    4    8    8
         2     5       6    4    7    8
         3     9       5    1    6    8
 12      1     2       9    9    6    6
         2     6       5    9    6    6
         3     6       6    8    6    6
 13      1     2       9    5    8    9
         2     3       6    4    7    7
         3     4       6    4    4    5
 14      1     0       0    0    0    0
************************************************************************
RESOURCEAVAILABILITIES:
  R 1  R 2  N 1  N 2
   18   18   70   74
************************************************************************
